Instance name: /mnt/c/Users/ORG/CLionProjects/uMV-FSTSP/Murray_Chu_2015_test_data/FSTSP/FSTSP_10_customer_problems/20140810T123440v10

drone speed: 0.6 miles/minute
uav non-eligible customer: 4 5 
Printing number of nodes: 11

Set parameter Threads to value 20
Gurobi Optimizer version 11.0.0 build v11.0.0rc2 (linux64 - "Ubuntu 22.04.3 LTS")

CPU model: 13th Gen Intel(R) Core(TM) i5-13500, instruction set [SSE2|AVX|AVX2]
Thread count: 10 physical cores, 20 logical processors, using up to 20 threads

Optimize a model with 6346 rows, 1825 columns and 197322 nonzeros
Model fingerprint: 0x5e88a361
Variable types: 11 continuous, 1814 integer (1814 binary)
Coefficient statistics:
  Matrix range     [6e-01, 2e+01]
  Objective range  [1e+00, 2e+01]
  Bounds range     [1e+00, 1e+00]
  RHS range        [1e+00, 8e+00]
Found heuristic solution: objective 106.5780718
Presolve removed 949 rows and 747 columns
Presolve time: 0.37s
Presolved: 5397 rows, 1078 columns, 152680 nonzeros
Variable types: 8 continuous, 1070 integer (1070 binary)

Root relaxation: objective 4.300664e+01, 1082 iterations, 0.08 seconds (0.20 work units)

    Nodes    |    Current Node    |     Objective Bounds      |     Work
 Expl Unexpl |  Obj  Depth IntInf | Incumbent    BestBd   Gap | It/Node Time

     0     0   43.00664    0   75  106.57807   43.00664  59.6%     -    0s
H    0     0                      83.7825569   43.00664  48.7%     -    0s
H    0     0                      61.3094302   43.00664  29.9%     -    0s
H    0     0                      57.9676827   43.00664  25.8%     -    0s
H    0     0                      53.8598446   43.00664  20.2%     -    0s
H    0     0                      50.2630076   43.00664  14.4%     -    0s
     0     0   43.00664    0   85   50.26301   43.00664  14.4%     -    0s
     0     0   43.00664    0   85   50.26301   43.00664  14.4%     -    0s
H    0     0                      47.8310873   43.00664  10.1%     -    0s
     0     0   43.00664    0   93   47.83109   43.00664  10.1%     -    0s
     0     0   43.00664    0   93   47.83109   43.00664  10.1%     -    0s
H    0     0                      47.6715744   43.00988  9.78%     -    1s
     0     0   43.00988    0  107   47.67157   43.00988  9.78%     -    1s
     0     0   43.01229    0  111   47.67157   43.01229  9.77%     -    1s
H    0     0                      43.8104176   43.02883  1.78%     -    1s
     0     0   43.02883    0  122   43.81042   43.02883  1.78%     -    1s
     0     0   43.06061    0  121   43.81042   43.06061  1.71%     -    1s
H    0     0                      43.3419877   43.06061  0.65%     -    1s
     0     0   43.06061    0  126   43.34199   43.06061  0.65%     -    1s
     0     0   43.06061    0   46   43.34199   43.06061  0.65%     -    1s
H    0     0                      43.0764440   43.06061  0.04%     -    1s

Cutting planes:
  Gomory: 6
  Cover: 3
  MIR: 17
  StrongCG: 3
  GUB cover: 1
  Zero half: 8
  RLT: 2

Explored 1 nodes (5840 simplex iterations) in 1.45 seconds (2.72 work units)
Thread count was 20 (of 20 available processors)

Solution count 10: 43.0764 43.342 43.8104 ... 83.7826

Optimal solution found (tolerance 1.00e-04)
Best objective 4.307644401979e+01, best bound 4.307644401979e+01, gap 0.0000%
